Traveling Salesman Problem/TSP_generados/Aleatorio1620390879_6.tsp
NAME: Aleatorio1620390879_6.tsp
COMMENT: Randomly generated scenario
TYPE: TSP
DIMENSION: 6
EDGE_WEIGHT_TYPE: ATT
NODE_COORD_SECTION
1 47.74 7.14
2 19.05 39.67
3 49.08 41.2
4 14.1 48.19
5 37.67 26.53
6 39.62 23.8
