Traveling Salesman Problem/TSP_generados/Aleatorio1620390879_6.opt.tour
NAME: Aleatorio1620390879_6.opt.tour
COMMENT: Optimal solution for Aleatorio1620390879_6 (124.28943551516215)
TYPE: TOUR
DIMENSION: 6
TOUR_SECTION
1 3 4 2 5 6
-1
EOF
